res_glpk/log/4_59.log
GLPSOL--GLPK LP/MIP Solver 5.0
Parameter(s) specified in the command line:
 --lp ../modeles/4_59.lp --log 4_59.log
Reading problem data from '../modeles/4_59.lp'...
253 rows, 480 columns, 1672 non-zeros
236 integer variables, all of which are binary
743 lines were read
GLPK Integer Optimizer 5.0
253 rows, 480 columns, 1672 non-zeros
236 integer variables, all of which are binary
Preprocessing...
232 constraint coefficient(s) were reduced
253 rows, 476 columns, 1668 non-zeros
236 integer variables, all of which are binary
Scaling...
 A: min|aij| =  1.149e-03  max|aij| =  4.000e+00  ratio =  3.481e+03
GM: min|aij| =  1.302e-01  max|aij| =  7.681e+00  ratio =  5.900e+01
EQ: min|aij| =  1.695e-02  max|aij| =  1.000e+00  ratio =  5.900e+01
2N: min|aij| =  1.562e-02  max|aij| =  1.719e+00  ratio =  1.100e+02
Constructing initial basis...
Size of triangular part is 253
Solving LP relaxation...
GLPK Simplex Optimizer 5.0
253 rows, 476 columns, 1668 non-zeros
      0: obj =   8.000000000e+00 inf =   1.950e+01 (9)
     43: obj =   4.978448276e-01 inf =   0.000e+00 (0)
*   136: obj =  -1.997881356e+00 inf =   1.198e-15 (0)
OPTIMAL LP SOLUTION FOUND
Integer optimization begins...
Long-step dual simplex will be used
+   136: mip =     not found yet >=              -inf        (1; 0)
+   166: >>>>>  -1.997881356e+00 >=  -1.997881356e+00 < 0.1% (30; 0)
+   166: mip =  -1.997881356e+00 >=     tree is empty   0.0% (0; 59)
INTEGER OPTIMAL SOLUTION FOUND
Time used:   0.0 secs
Memory used: 0.7 Mb (771780 bytes)
